language ESSENCE' 1.0
$ minion Nodes: 17
$ minion TotalTime: 0.009738
$ Savile Row TotalTime: 2.61
letting c be 3
letting a_MSetOccurrence be [1, 1, 1, 1, 0;int(3..7)]
letting b_MSetExplicit be [3, 4, 5, 7;int(1..4)]
letting a_MSetExplicit be [3, 4, 5, 6;int(1..4)]
letting b_MSetOccurrence be [1, 1, 1, 0, 1;int(3..7)]
